Route #1: 5 15 24 16 42 33 8 11 
Route #2: 9 17 
Route #3: 10 44 25 18 35 19 
Route #4: 12 7 3 22 39 
Route #5: 14 26 13 43 6 45 23 
Route #6: 21 29 31 34 40 1 27 20 41 28 
Route #7: 36 37 2 30 4 32 38 
cost 984.681
